c     column_bin_3a_3p
c     ---------EQUIPE--------
c     Carlos Eduardo Freitas
c     Lucas de Carvalho
c     --------DISCPLINA------
c     Logica Para Computacao
c     Professor Thiago Alves
c     2021.2
c     ----------------------
p cnf 22 54
-1 -2 0
-1 -3 0
-1 2 -3 0
1 -2 -3 0
-2 -3 0
1 2 3 0
-4 -5 0
-4 -6 0
-4 5 -6 0
4 -5 -6 0
-5 -6 0
4 5 6 0
-7 -8 0
-7 -9 0
-7 8 -9 0
7 -8 -9 0
-8 -9 0
7 8 9 0
-10 -11 0
-10 -12 0
-10 11 -12 0
10 -11 -12 0
-11 -12 0
10 11 12 0
-13 -14 0
-13 -15 0
-13 14 -15 0
13 -14 -15 0
-14 -15 0
13 14 15 0
-16 -17 0
-16 -18 0
-16 17 -18 0
16 -17 -18 0
-17 -18 0
16 17 18 0
-3 -6 -9 0
-12 -15 -18 0
1 5 7 0
10 14 16 0
-1 -19 0
-4 -19 0
-8 -19 0
-1 -20 0
-4 -20 0
-7 -20 0
-10 -21 0
-13 -21 0
-17 -21 0
-10 -22 0
-13 -22 0
-16 -22 0
19 21 0
20 22 0
